\ SCIP STATISTICS
\   Problem name     : t_enlight_hard
\   Variables        : 200 (100 binary, 100 integer, 0 implicit integer, 0 continuous)
\   Constraints      : 100
Minimize
 Obj: +1 t_x#10#10 +1 t_x#1#1 +1 t_x#1#2 +1 t_x#1#3 +1 t_x#1#4 +1 t_x#1#5 +1 t_x#1#6 +1 t_x#1#7 +1 t_x#1#8
      +1 t_x#1#9 +1 t_x#1#10 +1 t_x#2#1 +1 t_x#2#2 +1 t_x#2#3 +1 t_x#2#4 +1 t_x#2#5 +1 t_x#2#6 +1 t_x#2#7
      +1 t_x#2#8 +1 t_x#2#9 +1 t_x#2#10 +1 t_x#3#1 +1 t_x#3#2 +1 t_x#3#3 +1 t_x#3#4 +1 t_x#3#5 +1 t_x#3#6
      +1 t_x#3#7 +1 t_x#3#8 +1 t_x#3#9 +1 t_x#3#10 +1 t_x#4#1 +1 t_x#4#2 +1 t_x#4#3 +1 t_x#4#4 +1 t_x#4#5
      +1 t_x#4#6 +1 t_x#4#7 +1 t_x#4#8 +1 t_x#4#9 +1 t_x#4#10 +1 t_x#5#1 +1 t_x#5#2 +1 t_x#5#3 +1 t_x#5#4
      +1 t_x#5#5 +1 t_x#5#6 +1 t_x#5#7 +1 t_x#5#8 +1 t_x#5#9 +1 t_x#5#10 +1 t_x#6#1 +1 t_x#6#2 +1 t_x#6#3
      +1 t_x#6#4 +1 t_x#6#5 +1 t_x#6#6 +1 t_x#6#7 +1 t_x#6#8 +1 t_x#6#9 +1 t_x#6#10 +1 t_x#7#1 +1 t_x#7#2
      +1 t_x#7#3 +1 t_x#7#4 +1 t_x#7#5 +1 t_x#7#6 +1 t_x#7#7 +1 t_x#7#8 +1 t_x#7#9 +1 t_x#7#10 +1 t_x#8#1
      +1 t_x#8#2 +1 t_x#8#3 +1 t_x#8#4 +1 t_x#8#5 +1 t_x#8#6 +1 t_x#8#7 +1 t_x#8#8 +1 t_x#8#9 +1 t_x#8#10
      +1 t_x#9#1 +1 t_x#9#2 +1 t_x#9#3 +1 t_x#9#4 +1 t_x#9#5 +1 t_x#9#6 +1 t_x#9#7 +1 t_x#9#8 +1 t_x#9#9
      +1 t_x#9#10 +1 t_x#10#1 +1 t_x#10#2 +1 t_x#10#3 +1 t_x#10#4 +1 t_x#10#5 +1 t_x#10#6 +1 t_x#10#7
      +1 t_x#10#8 +1 t_x#10#9
Subject to
 upper_border_7: +1 t_x#1#7 +1 t_x#1#8 +1 t_x#1#9 +1 t_x#2#8 -2 t_y#1#8 = -1
 lower_border_8: +1 t_x#10#10 +1 t_x#9#9 +1 t_x#10#8 +1 t_x#10#9 -2 t_y#10#9 = -1
 upper_border_5: +1 t_x#1#5 +1 t_x#1#6 +1 t_x#1#7 +1 t_x#2#6 -2 t_y#1#6 = +0
 upper_border_4: +1 t_x#1#4 +1 t_x#1#5 +1 t_x#1#6 +1 t_x#2#5 -2 t_y#1#5 = +0
 inner_area_5: +1 t_x#1#6 +1 t_x#2#5 +1 t_x#2#6 +1 t_x#2#7 +1 t_x#3#6 -2 t_y#2#6 = +0
 inner_area_55: +1 t_x#7#8 +1 t_x#8#7 +1 t_x#8#8 +1 t_x#8#9 +1 t_x#9#8 -2 t_y#8#8 = -1
 upper_border_3: +1 t_x#1#3 +1 t_x#1#4 +1 t_x#1#5 +1 t_x#2#4 -2 t_y#1#4 = +0
 right_upper_c@62: +1 t_x#1#9 +1 t_x#1#10 +1 t_x#2#10 -2 t_y#1#10 = +0
 inner_area_3: +1 t_x#1#4 +1 t_x#2#3 +1 t_x#2#4 +1 t_x#2#5 +1 t_x#3#4 -2 t_y#2#4 = +0
 inner_area_4: +1 t_x#1#5 +1 t_x#2#4 +1 t_x#2#5 +1 t_x#2#6 +1 t_x#3#5 -2 t_y#2#5 = +0
 inner_area_2: +1 t_x#1#3 +1 t_x#2#2 +1 t_x#2#3 +1 t_x#2#4 +1 t_x#3#3 -2 t_y#2#3 = +0
 inner_area_64: +1 t_x#8#9 +1 t_x#9#8 +1 t_x#9#9 +1 t_x#9#10 +1 t_x#10#9 -2 t_y#9#9 = +0
 upper_border_2: +1 t_x#1#2 +1 t_x#1#3 +1 t_x#1#4 +1 t_x#2#3 -2 t_y#1#3 = +0
 right_border_8: +1 t_x#10#10 +1 t_x#8#10 +1 t_x#9#9 +1 t_x#9#10 -2 t_y#9#10 = -1
 inner_area_62: +1 t_x#8#7 +1 t_x#9#6 +1 t_x#9#7 +1 t_x#9#8 +1 t_x#10#7 -2 t_y#9#7 = -1
 inner_area_15: +1 t_x#2#8 +1 t_x#3#7 +1 t_x#3#8 +1 t_x#3#9 +1 t_x#4#8 -2 t_y#3#8 = +0
 left_lower_co@61: +1 t_x#9#1 +1 t_x#10#1 +1 t_x#10#2 -2 t_y#10#1 = -1
 inner_area_6: +1 t_x#1#7 +1 t_x#2#6 +1 t_x#2#7 +1 t_x#2#8 +1 t_x#3#7 -2 t_y#2#7 = -1
 inner_area_13: +1 t_x#2#6 +1 t_x#3#5 +1 t_x#3#6 +1 t_x#3#7 +1 t_x#4#6 -2 t_y#3#6 = -1
 inner_area_14: +1 t_x#2#7 +1 t_x#3#6 +1 t_x#3#7 +1 t_x#3#8 +1 t_x#4#7 -2 t_y#3#7 = +0
 right_border_2: +1 t_x#2#10 +1 t_x#3#9 +1 t_x#3#10 +1 t_x#4#10 -2 t_y#3#10 = -1
 upper_border_1: +1 t_x#1#1 +1 t_x#1#2 +1 t_x#1#3 +1 t_x#2#2 -2 t_y#1#2 = +0
 inner_area_1: +1 t_x#1#2 +1 t_x#2#1 +1 t_x#2#2 +1 t_x#2#3 +1 t_x#3#2 -2 t_y#2#2 = +0
 left_upper_co@60: +1 t_x#1#1 +1 t_x#1#2 +1 t_x#2#1 -2 t_y#1#1 = -1
 inner_area_11: +1 t_x#2#4 +1 t_x#3#3 +1 t_x#3#4 +1 t_x#3#5 +1 t_x#4#4 -2 t_y#3#4 = +0
 inner_area_12: +1 t_x#2#5 +1 t_x#3#4 +1 t_x#3#5 +1 t_x#3#6 +1 t_x#4#5 -2 t_y#3#5 = -1
 lower_border_7: +1 t_x#9#8 +1 t_x#10#7 +1 t_x#10#8 +1 t_x#10#9 -2 t_y#10#8 = +0
 right_border_3: +1 t_x#3#10 +1 t_x#4#9 +1 t_x#4#10 +1 t_x#5#10 -2 t_y#4#10 = +0
 inner_area_22: +1 t_x#3#7 +1 t_x#4#6 +1 t_x#4#7 +1 t_x#4#8 +1 t_x#5#7 -2 t_y#4#7 = +0
 right_lower_c@63: +1 t_x#10#10 +1 t_x#9#10 +1 t_x#10#9 -2 t_y#10#10 = +0
 inner_area_20: +1 t_x#3#5 +1 t_x#4#4 +1 t_x#4#5 +1 t_x#4#6 +1 t_x#5#5 -2 t_y#4#5 = +0
 inner_area_21: +1 t_x#3#6 +1 t_x#4#5 +1 t_x#4#6 +1 t_x#4#7 +1 t_x#5#6 -2 t_y#4#6 = +0
 left_border_1: +1 t_x#1#1 +1 t_x#2#1 +1 t_x#2#2 +1 t_x#3#1 -2 t_y#2#1 = +0
 inner_area_10: +1 t_x#2#3 +1 t_x#3#2 +1 t_x#3#3 +1 t_x#3#4 +1 t_x#4#3 -2 t_y#3#3 = +0
 inner_area_9: +1 t_x#2#2 +1 t_x#3#1 +1 t_x#3#2 +1 t_x#3#3 +1 t_x#4#2 -2 t_y#3#2 = -1
 left_border_2: +1 t_x#2#1 +1 t_x#3#1 +1 t_x#3#2 +1 t_x#4#1 -2 t_y#3#1 = +0
 inner_area_19: +1 t_x#3#4 +1 t_x#4#3 +1 t_x#4#4 +1 t_x#4#5 +1 t_x#5#4 -2 t_y#4#4 = +0
 inner_area_63: +1 t_x#8#8 +1 t_x#9#7 +1 t_x#9#8 +1 t_x#9#9 +1 t_x#10#8 -2 t_y#9#8 = -1
 inner_area_32: +1 t_x#4#9 +1 t_x#5#8 +1 t_x#5#9 +1 t_x#5#10 +1 t_x#6#9 -2 t_y#5#9 = +0
 inner_area_29: +1 t_x#4#6 +1 t_x#5#5 +1 t_x#5#6 +1 t_x#5#7 +1 t_x#6#6 -2 t_y#5#6 = -1
 inner_area_30: +1 t_x#4#7 +1 t_x#5#6 +1 t_x#5#7 +1 t_x#5#8 +1 t_x#6#7 -2 t_y#5#7 = +0
 left_border_3: +1 t_x#3#1 +1 t_x#4#1 +1 t_x#4#2 +1 t_x#5#1 -2 t_y#4#1 = +0
 inner_area_18: +1 t_x#3#3 +1 t_x#4#2 +1 t_x#4#3 +1 t_x#4#4 +1 t_x#5#3 -2 t_y#4#3 = +0
 inner_area_17: +1 t_x#3#2 +1 t_x#4#1 +1 t_x#4#2 +1 t_x#4#3 +1 t_x#5#2 -2 t_y#4#2 = +0
 left_border_4: +1 t_x#4#1 +1 t_x#5#1 +1 t_x#5#2 +1 t_x#6#1 -2 t_y#5#1 = -1
 inner_area_27: +1 t_x#4#4 +1 t_x#5#3 +1 t_x#5#4 +1 t_x#5#5 +1 t_x#6#4 -2 t_y#5#4 = +0
 inner_area_28: +1 t_x#4#5 +1 t_x#5#4 +1 t_x#5#5 +1 t_x#5#6 +1 t_x#6#5 -2 t_y#5#5 = +0
 inner_area_38: +1 t_x#5#7 +1 t_x#6#6 +1 t_x#6#7 +1 t_x#6#8 +1 t_x#7#7 -2 t_y#6#7 = +0
 inner_area_39: +1 t_x#5#8 +1 t_x#6#7 +1 t_x#6#8 +1 t_x#6#9 +1 t_x#7#8 -2 t_y#6#8 = -1
 inner_area_36: +1 t_x#5#5 +1 t_x#6#4 +1 t_x#6#5 +1 t_x#6#6 +1 t_x#7#5 -2 t_y#6#5 = +0
 inner_area_37: +1 t_x#5#6 +1 t_x#6#5 +1 t_x#6#6 +1 t_x#6#7 +1 t_x#7#6 -2 t_y#6#6 = +0
 inner_area_26: +1 t_x#4#3 +1 t_x#5#2 +1 t_x#5#3 +1 t_x#5#4 +1 t_x#6#3 -2 t_y#5#3 = +0
 inner_area_25: +1 t_x#4#2 +1 t_x#5#1 +1 t_x#5#2 +1 t_x#5#3 +1 t_x#6#2 -2 t_y#5#2 = +0
 inner_area_34: +1 t_x#5#3 +1 t_x#6#2 +1 t_x#6#3 +1 t_x#6#4 +1 t_x#7#3 -2 t_y#6#3 = -1
 inner_area_33: +1 t_x#5#2 +1 t_x#6#1 +1 t_x#6#2 +1 t_x#6#3 +1 t_x#7#2 -2 t_y#6#2 = +0
 inner_area_35: +1 t_x#5#4 +1 t_x#6#3 +1 t_x#6#4 +1 t_x#6#5 +1 t_x#7#4 -2 t_y#6#4 = +0
 inner_area_45: +1 t_x#6#6 +1 t_x#7#5 +1 t_x#7#6 +1 t_x#7#7 +1 t_x#8#6 -2 t_y#7#6 = +0
 inner_area_46: +1 t_x#6#7 +1 t_x#7#6 +1 t_x#7#7 +1 t_x#7#8 +1 t_x#8#7 -2 t_y#7#7 = -1
 left_border_5: +1 t_x#5#1 +1 t_x#6#1 +1 t_x#6#2 +1 t_x#7#1 -2 t_y#6#1 = +0
 inner_area_41: +1 t_x#6#2 +1 t_x#7#1 +1 t_x#7#2 +1 t_x#7#3 +1 t_x#8#2 -2 t_y#7#2 = +0
 left_border_6: +1 t_x#6#1 +1 t_x#7#1 +1 t_x#7#2 +1 t_x#8#1 -2 t_y#7#1 = +0
 inner_area_43: +1 t_x#6#4 +1 t_x#7#3 +1 t_x#7#4 +1 t_x#7#5 +1 t_x#8#4 -2 t_y#7#4 = -1
 inner_area_44: +1 t_x#6#5 +1 t_x#7#4 +1 t_x#7#5 +1 t_x#7#6 +1 t_x#8#5 -2 t_y#7#5 = +0
 inner_area_52: +1 t_x#7#5 +1 t_x#8#4 +1 t_x#8#5 +1 t_x#8#6 +1 t_x#9#5 -2 t_y#8#5 = -1
 inner_area_53: +1 t_x#7#6 +1 t_x#8#5 +1 t_x#8#6 +1 t_x#8#7 +1 t_x#9#6 -2 t_y#8#6 = +0
 left_border_7: +1 t_x#7#1 +1 t_x#8#1 +1 t_x#8#2 +1 t_x#9#1 -2 t_y#8#1 = -1
 inner_area_42: +1 t_x#6#3 +1 t_x#7#2 +1 t_x#7#3 +1 t_x#7#4 +1 t_x#8#3 -2 t_y#7#3 = +0
 inner_area_51: +1 t_x#7#4 +1 t_x#8#3 +1 t_x#8#4 +1 t_x#8#5 +1 t_x#9#4 -2 t_y#8#4 = +0
 inner_area_50: +1 t_x#7#3 +1 t_x#8#2 +1 t_x#8#3 +1 t_x#8#4 +1 t_x#9#3 -2 t_y#8#3 = +0
 inner_area_49: +1 t_x#7#2 +1 t_x#8#1 +1 t_x#8#2 +1 t_x#8#3 +1 t_x#9#2 -2 t_y#8#2 = +0
 inner_area_58: +1 t_x#8#3 +1 t_x#9#2 +1 t_x#9#3 +1 t_x#9#4 +1 t_x#10#3 -2 t_y#9#3 = +0
 inner_area_57: +1 t_x#8#2 +1 t_x#9#1 +1 t_x#9#2 +1 t_x#9#3 +1 t_x#10#2 -2 t_y#9#2 = -1
 left_border_8: +1 t_x#8#1 +1 t_x#9#1 +1 t_x#9#2 +1 t_x#10#1 -2 t_y#9#1 = +0
 inner_area_59: +1 t_x#8#4 +1 t_x#9#3 +1 t_x#9#4 +1 t_x#9#5 +1 t_x#10#4 -2 t_y#9#4 = +0
 inner_area_60: +1 t_x#8#5 +1 t_x#9#4 +1 t_x#9#5 +1 t_x#9#6 +1 t_x#10#5 -2 t_y#9#5 = +0
 lower_border_3: +1 t_x#9#4 +1 t_x#10#3 +1 t_x#10#4 +1 t_x#10#5 -2 t_y#10#4 = -1
 lower_border_2: +1 t_x#9#3 +1 t_x#10#2 +1 t_x#10#3 +1 t_x#10#4 -2 t_y#10#3 = -1
 lower_border_1: +1 t_x#9#2 +1 t_x#10#1 +1 t_x#10#2 +1 t_x#10#3 -2 t_y#10#2 = +0
 right_border_4: +1 t_x#4#10 +1 t_x#5#9 +1 t_x#5#10 +1 t_x#6#10 -2 t_y#5#10 = +0
 inner_area_40: +1 t_x#5#9 +1 t_x#6#8 +1 t_x#6#9 +1 t_x#6#10 +1 t_x#7#9 -2 t_y#6#9 = +0
 inner_area_47: +1 t_x#6#8 +1 t_x#7#7 +1 t_x#7#8 +1 t_x#7#9 +1 t_x#8#8 -2 t_y#7#8 = +0
 inner_area_54: +1 t_x#7#7 +1 t_x#8#6 +1 t_x#8#7 +1 t_x#8#8 +1 t_x#9#7 -2 t_y#8#7 = +0
 inner_area_61: +1 t_x#8#6 +1 t_x#9#5 +1 t_x#9#6 +1 t_x#9#7 +1 t_x#10#6 -2 t_y#9#6 = +0
 right_border_5: +1 t_x#5#10 +1 t_x#6#9 +1 t_x#6#10 +1 t_x#7#10 -2 t_y#6#10 = +0
 lower_border_4: +1 t_x#9#5 +1 t_x#10#4 +1 t_x#10#5 +1 t_x#10#6 -2 t_y#10#5 = -1
 inner_area_48: +1 t_x#6#9 +1 t_x#7#8 +1 t_x#7#9 +1 t_x#7#10 +1 t_x#8#9 -2 t_y#7#9 = -1
 lower_border_5: +1 t_x#9#6 +1 t_x#10#5 +1 t_x#10#6 +1 t_x#10#7 -2 t_y#10#6 = +0
 lower_border_6: +1 t_x#9#7 +1 t_x#10#6 +1 t_x#10#7 +1 t_x#10#8 -2 t_y#10#7 = -1
 right_border_6: +1 t_x#6#10 +1 t_x#7#9 +1 t_x#7#10 +1 t_x#8#10 -2 t_y#7#10 = +0
 inner_area_56: +1 t_x#7#9 +1 t_x#8#8 +1 t_x#8#9 +1 t_x#8#10 +1 t_x#9#9 -2 t_y#8#9 = +0
 right_border_7: +1 t_x#7#10 +1 t_x#8#9 +1 t_x#8#10 +1 t_x#9#10 -2 t_y#8#10 = -1
 inner_area_7: +1 t_x#1#8 +1 t_x#2#7 +1 t_x#2#8 +1 t_x#2#9 +1 t_x#3#8 -2 t_y#2#8 = +0
 inner_area_23: +1 t_x#3#8 +1 t_x#4#7 +1 t_x#4#8 +1 t_x#4#9 +1 t_x#5#8 -2 t_y#4#8 = -1
 inner_area_24: +1 t_x#3#9 +1 t_x#4#8 +1 t_x#4#9 +1 t_x#4#10 +1 t_x#5#9 -2 t_y#4#9 = +0
 inner_area_8: +1 t_x#1#9 +1 t_x#2#8 +1 t_x#2#9 +1 t_x#2#10 +1 t_x#3#9 -2 t_y#2#9 = +0
 upper_border_8: +1 t_x#1#8 +1 t_x#1#9 +1 t_x#1#10 +1 t_x#2#9 -2 t_y#1#9 = +0
 right_border_1: +1 t_x#1#10 +1 t_x#2#9 +1 t_x#2#10 +1 t_x#3#10 -2 t_y#2#10 = +0
 inner_area_16: +1 t_x#2#9 +1 t_x#3#8 +1 t_x#3#9 +1 t_x#3#10 +1 t_x#4#9 -2 t_y#3#9 = +0
 inner_area_31: +1 t_x#4#8 +1 t_x#5#7 +1 t_x#5#8 +1 t_x#5#9 +1 t_x#6#8 -2 t_y#5#8 = +0
 upper_border_6: +1 t_x#1#6 +1 t_x#1#7 +1 t_x#1#8 +1 t_x#2#7 -2 t_y#1#7 = +0
 newcut_1: +1.0 t_x#7#3 -1.0 t_y#7#2 <= 0.0
 newcut_2: -1.0 t_x#3#2 +1.0 t_y#3#1 <= 1.0
 newcut_3: +1.0 t_x#4#5 -1.0 t_y#4#4 <= 0.0
 newcut_4: +1.0 t_x#7#3 -1.0 t_y#8#3 <= 0.0
 newcut_5: +1.0 t_x#1#7 -1.0 t_y#1#6 <= 0.0
 newcut_6: +1.0 t_x#2#1 -1.0 t_y#2#2 <= 0.0
 newcut_7: +1.0 t_x#2#10 -1.0 t_y#2#10 <= 0.0
 newcut_8: +1.0 t_x#1#7 -1.0 t_y#1#7 <= 0.0
 newcut_9: +1.0 t_x#9#1 -1.0 t_y#9#1 <= 0.0
 newcut_10: +1.0 t_x#4#5 -1.0 t_y#5#5 <= 0.0
 newcut_11: +1.0 t_x#2#10 -1.0 t_y#2#9 <= 0.0
 newcut_12: +1.0 t_x#2#10 -1.0 t_y#1#10 <= 0.0
 newcut_13: +1.0 t_x#4#1 -1.0 t_y#4#2 <= 0.0
 newcut_14: +1.0 t_x#7#3 -1.0 t_y#7#3 <= 0.0
 newcut_15: +1.0 t_x#9#5 -1.0 t_y#9#5 <= 0.0
 newcut_16: -1.0 t_x#10#5 -1.0 t_x#10#6 +1.0 t_y#10#5 <= 1.0
 newcut_17: -1.0 t_x#5#6 -1.0 t_y#6#7 +1.0 t_y#5#7 -1.0 t_y#4#8 <= -1.0
 newcut_18: -1.0 t_x#7#7 -1.0 t_x#8#6 -1.0 t_x#8#8 -1.0 t_y#9#7 +1.0 t_y#8#7 <= -1.0
 newcut_19: +1.0 t_x#7#10 +1.0 t_x#8#9 +1.0 t_x#8#10 -1.0 t_y#8#10 -1.0 t_y#6#10 -1.0 t_y#8#9 <= -1.0
 newcut_20: +1.0 t_x#10#10 +1.0 t_x#10#8 +1.0 t_x#10#9 -1.0 t_y#10#10 -1.0 t_y#10#9 -1.0 t_y#10#8 <= -1.0
 newcut_21: +1.0 t_x#4#7 -1.0 t_y#3#7 <= 0.0
 newcut_22: +1.0 t_x#5#8 -1.0 t_y#5#9 <= 0.0
 newcut_23: +1.0 t_x#4#6 -1.0 t_y#4#7 <= 0.0
 newcut_24: +1.0 t_x#7#8 -1.0 t_y#7#8 <= 0.0
 newcut_25: +1.0 t_x#8#7 -1.0 t_y#8#6 <= 0.0
 newcut_26: +1.0 t_x#3#6 -1.0 t_y#3#7 <= 0.0
 newcut_27: +1.0 t_x#3#10 -1.0 t_y#2#10 <= 0.0
 newcut_28: +1.0 t_x#2#8 -1.0 t_y#2#9 <= 0.0
 newcut_29: +1.0 t_x#5#6 -1.0 t_y#5#5 <= 0.0
 newcut_30: +1.0 t_x#2#8 -1.0 t_y#2#8 <= 0.0
 newcut_31: +1.0 t_x#2#8 -1.0 t_y#3#8 <= 0.0
 newcut_32: +1.0 t_x#3#6 -1.0 t_y#2#6 <= 0.0
 newcut_33: +1.0 t_x#5#6 -1.0 t_y#6#6 <= 0.0
 newcut_34: +2.0 t_x#4#6 -1.0 t_x#5#9 -1.0 t_x#5#10 -2.0 t_x#6#7 -1.0 t_x#7#6 +1.0 t_x#7#8 -1.0 t_x#10#6 -1.0 t_y#8#10 -1.0 t_y#10#9 -1.0 t_y#9#7 -1.0 t_y#7#8 -2.0 t_y#6#8 +2.0 t_y#5#7 -2.0 t_y#5#6 -2.0 t_y#4#8 -2.0 t_y#4#7 <= -9.0
 newcut_35: +1.0 t_x#4#1 +1.0 t_x#5#2 -1.0 t_y#5#1 -1.0 t_y#4#2 <= -1.0
 newcut_36: +1.0 t_x#10#7 +1.0 t_x#10#8 -1.0 t_y#10#8 -1.0 t_y#10#7 <= -1.0
 newcut_37: +1.0 t_x#7#3 +1.0 t_x#8#4 -1.0 t_y#8#3 -1.0 t_y#7#4 <= -1.0
 newcut_38: -1.0 t_x#2#2 -1.0 t_x#3#2 -1.0 t_y#1#1 -1.0 t_y#1#3 +1.0 t_y#1#2 +1.0 t_y#2#2 <= -1.0
 newcut_39: -1.0 t_x#8#8 -1.0 t_x#9#8 -1.0 t_y#10#9 +1.0 t_y#10#8 -1.0 t_y#10#7 +1.0 t_y#9#8 <= -1.0
 newcut_40: -1.0 t_x#9#2 -1.0 t_x#9#3 -1.0 t_y#10#1 +1.0 t_y#9#1 -1.0 t_y#8#1 +1.0 t_y#9#2 <= -1.0
 newcut_41: +1.0 t_x#5#8 -1.0 t_y#5#8 <= 0.0
 newcut_42: +1.0 t_x#3#1 -1.0 t_y#4#1 <= 0.0
 newcut_43: +1.0 t_x#8#1 -1.0 t_y#7#1 <= 0.0
 newcut_44: +1.0 t_x#10#2 -1.0 t_y#10#2 <= 0.0
 newcut_45: +1.0 t_x#10#5 -1.0 t_y#9#5 <= 0.0
 newcut_46: +1.0 t_x#4#1 -1.0 t_y#4#1 <= 0.0
 newcut_47: +1.0 t_x#6#4 -1.0 t_y#6#4 <= 0.0
 newcut_48: +1.0 t_x#2#1 -1.0 t_y#2#1 <= 0.0
 newcut_49: -1.0 t_x#3#1 +1.0 t_y#3#1 <= 1.0
 newcut_50: +1.0 t_x#8#6 -1.0 t_y#7#6 <= 0.0
 newcut_51: +1.0 t_x#3#9 -1.0 t_y#4#9 <= 0.0
 newcut_52: +1.0 t_x#3#2 -1.0 t_y#3#3 <= 0.0
 newcut_53: +1.0 t_x#3#5 -1.0 t_y#3#4 <= 0.0
 newcut_54: +1.0 t_x#3#8 -1.0 t_y#3#7 <= 0.0
 newcut_55: +1.0 t_x#9#1 +1.0 t_x#10#2 -1.0 t_x#10#3 -1.0 t_y#10#1 -1.0 t_y#8#1 -1.0 t_y#9#2 <= -3.0
 newcut_56: +1.0 t_x#7#1 -1.0 t_y#7#2 <= 0.0
 newcut_57: -1.0 t_x#3#7 -1.0 t_x#4#8 +1.0 t_y#3#8 <= 1.0
 newcut_58: +1.0 t_x#10#10 -2.0 t_x#1#5 -1.0 t_x#1#6 -1.0 t_x#1#10 -1.0 t_x#2#4 -1.0 t_x#2#6 -1.0 t_x#2#7 -1.0 t_x#2#9 +1.0 t_x#3#6 -1.0 t_x#3#7 +2.0 t_x#5#8 -1.0 t_x#6#8 -1.0 t_x#6#10 -1.0 t_x#7#9 -1.0 t_x#8#8 -1.0 t_x#9#6 -1.0 t_x#9#8 +1.0 t_x#10#8 +1.0 t_x#10#9 -1.0 t_y#10#10 -1.0 t_y#8#10 -2.0 t_y#10#9 -1.0 t_y#10#7 -2.0 t_y#1#8 -1.0 t_y#7#7 -2.0 t_y#5#9 -2.0 t_y#4#8 -1.0 t_y#3#6 +1.0 t_y#2#7 -1.0 t_y#2#6 +1.0 t_y#2#5 <= -10.0
 newcut_59: +1.0 t_x#3#4 -1.0 t_y#4#4 <= 0.0
 newcut_60: +1.0 t_x#3#4 -1.0 t_y#3#4 <= 0.0
 newcut_61: +1.0 t_x#3#4 -1.0 t_y#2#4 <= 0.0
 newcut_62: +1.0 t_x#10#10 +1.0 t_x#9#10 -1.0 t_y#10#10 -1.0 t_y#9#10 <= -1.0
 newcut_63: +1.0 t_x#4#1 +1.0 t_x#5#1 -1.0 t_y#5#1 -1.0 t_y#4#1 <= -1.0
 newcut_64: +1.0 t_x#9#1 +1.0 t_x#10#1 -1.0 t_y#10#1 -1.0 t_y#9#1 <= -1.0
 newcut_65: -1.0 t_x#3#1 -1.0 t_x#4#2 -1.0 t_y#5#1 +1.0 t_y#4#1 <= -1.0
 newcut_66: +1.0 t_x#1#1 +1.0 t_x#2#1 -1.0 t_y#1#1 -1.0 t_y#2#1 <= -1.0
 newcut_67: -1.0 t_x#8#1 -1.0 t_x#9#2 -1.0 t_y#10#1 +1.0 t_y#9#1 <= -1.0
 newcut_68: +1.0 t_x#4#6 -1.0 t_y#4#5 <= 0.0
 newcut_69: +1.0 t_x#3#9 +1.0 t_x#3#10 +1.0 t_x#4#9 +1.0 t_x#4#10 -1.0 t_y#4#10 -1.0 t_y#3#10 -1.0 t_y#3#9 <= -1.0
 newcut_70: +1.0 t_x#3#2 -1.0 t_y#2#2 <= 0.0
 newcut_71: +1.0 t_x#7#1 -1.0 t_y#7#1 <= 0.0
 newcut_72: +1.0 t_x#7#5 -1.0 t_y#7#5 <= 0.0
 newcut_73: +1.0 t_x#1#2 -1.0 t_y#1#2 <= 0.0
 newcut_74: +1.0 t_x#10#6 +1.0 t_x#10#7 -1.0 t_y#10#7 -1.0 t_y#10#6 <= -1.0
 newcut_75: -1.0 t_x#9#6 -1.0 t_x#10#5 -1.0 t_y#10#7 +1.0 t_y#10#6 <= -1.0
 newcut_76: +1.0 t_x#3#2 -1.0 t_y#3#1 <= 0.0
 newcut_77: -16.0 t_x#1#6 +88.0 t_x#1#7 -3.0 t_x#1#10 -150.0 t_x#2#2 +68.0 t_x#2#3 +42.0 t_x#2#8 -150.0 t_x#3#1 +57.0 t_x#3#2 +57.0 t_x#3#3 +262.0 t_x#3#4 +40.0 t_x#3#8 -150.0 t_x#4#2 +18.0 t_x#4#3 -13.0 t_x#4#8 -1.0 t_x#5#10 -13.0 t_x#6#5 -4.0 t_y#1#8 -88.0 t_y#1#6 -26.0 t_y#5#6 -36.0 t_y#4#4 -40.0 t_y#3#7 -114.0 t_y#3#4 -275.0 t_y#3#3 +150.0 t_y#3#2 -42.0 t_y#2#8 -38.0 t_y#2#7 -136.0 t_y#2#4 <= -160.0
 newcut_78: -1.0 t_x#1#3 -1.0 t_x#1#4 -1.0 t_x#2#3 +1.0 t_y#1#3 <= 0.0
 newcut_79: +0.010830614230923354 t_x#10#10 -0.021661228461846708 t_x#1#5 -0.010830614230923354 t_x#1#6 +0.0026790314270994328 t_x#1#7 -0.010830614230923354 t_x#1#10 -0.010830614230923354 t_x#2#4 -0.010830614230923354 t_x#2#6 -0.010830614230923354 t_x#2#7 +0.0026790314270994328 t_x#2#8 -0.010830614230923354 t_x#2#9 +0.0028393153586352975 t_x#2#10 +0.017493846241914256 t_x#3#4 +0.010830614230923354 t_x#3#6 -0.010830614230923354 t_x#3#7 +0.0014196576793176487 t_x#3#9 +0.0028393153586352975 t_x#3#10 -0.011735073558875727 t_x#4#3 -0.0044993989352567435 t_x#4#4 -0.0212147232239968 t_x#4#7 -0.012433453546281989 t_x#4#8 +0.0014196576793176487 t_x#4#9 +0.0014196576793176487 t_x#4#10 -0.26805770221535297 t_x#5#3 +0.021661228461846708 t_x#5#8 -0.0074131318335336855 t_x#5#10 +0.17870513481023537 t_x#6#4 -0.010830614230923354 t_x#6#8 -0.018953574904115863 t_x#6#10 +0.5361154044307059 t_x#7#1 +0.7148205392409411 t_x#7#3 +0.3574102696204707 t_x#7#5 -0.09747552807831016 t_x#7#7 -0.04603011048142426 t_x#7#9 +0.3574102696204707 t_x#8#4 -0.2274428988493904 t_x#8#6 -0.10830614230923351 t_x#8#8 +0.35741026962047046 t_x#9#1 -0.8212948651897646 t_x#9#2 -0.8212948651897646 t_x#9#3 -0.010830614230923354 t_x#9#6 -0.12996737077108023 t_x#9#7 -0.010830614230923354 t_x#9#8 +0.1787051348102351 t_x#10#1 -0.4638845955692941 t_x#10#2 -0.17870513481023537 t_x#10#3 -0.03790714980823174 t_x#10#8 -0.05686072471234761 t_x#10#9 -0.0028393153586352975 t_y#1#10 -0.010830614230923354 t_y#10#10 -0.9828782414562939 t_y#10#1 -0.027076535577308374 t_y#8#10 -0.0014196576793176487 t_y#4#10 -0.0014196576793176487 t_y#3#10 -0.0014196576793176487 t_y#2#10 -1.0 t_y#8#1 -0.0649836853855401 t_y#10#9 -0.010830614230923354 t_y#10#7 -0.3574102696204706 t_y#10#5 -0.8212948651897646 t_y#10#4 +0.8212948651897646 t_y#10#3 -0.021661228461846708 t_y#1#8 -0.0001602839315358652 t_y#1#7 -0.0025187474955635676 t_y#1#6 -0.14079798500200358 t_y#9#7 +0.6425897303795292 t_y#9#2 +0.09747552807831016 t_y#8#7 -0.3574102696204707 t_y#8#3 -0.010830614230923354 t_y#7#7 -0.3574102696204707 t_y#7#5 -0.7148205392409412 t_y#7#4 -0.3574102696204705 t_y#7#3 -0.5361154044307059 t_y#7#2 -0.043322456923693416 t_y#6#8 -0.17870513481023537 t_y#6#4 -0.021661228461846708 t_y#5#9 -0.0032056786307172705 t_y#5#6 -0.021661228461846708 t_y#4#8 -0.0014196576793176487 t_y#3#9 -0.010830614230923354 t_y#3#6 -0.011517545366077055 t_y#3#5 -0.00572442612628084 t_y#3#4 -0.003022496994676288 t_y#3#2 -0.0026790314270994328 t_y#2#8 -0.00551834678573473 t_y#2#7 -0.010830614230923354 t_y#2#6 +0.010830614230923354 t_y#2#5 -0.011769420115633415 t_y#2#4 <= -3.4426183525101615
 newcut_80: -1.0 t_x#1#5 +1.0 t_x#1#7 -1.0 t_x#2#4 -1.0 t_x#2#9 +1.0 t_x#2#10 +1.0 t_x#3#2 -1.0 t_x#3#5 -1.0 t_x#3#7 +1.0 t_x#3#9 +2.0 t_x#3#10 -2.0 t_x#4#4 -1.0 t_x#4#5 +1.0 t_x#4#6 -2.0 t_x#4#7 -1.0 t_x#4#8 +1.0 t_x#4#9 +1.0 t_x#4#10 -2.0 t_x#5#4 -1.0 t_x#6#5 -1.0 t_y#1#10 -1.0 t_y#4#10 -1.0 t_y#3#10 -1.0 t_y#2#10 -3.0 t_y#1#7 +1.0 t_y#1#6 -2.0 t_y#5#6 +1.0 t_y#5#5 +1.0 t_y#4#7 -1.0 t_y#3#9 -1.0 t_y#3#6 +1.0 t_y#3#5 +1.0 t_y#3#4 -1.0 t_y#3#3 -2.0 t_y#3#2 -1.0 t_y#2#6 -1.0 t_y#2#4 <= -6.0
 newcut_81: +1.0 t_x#5#2 -1.0 t_y#5#3 <= 0.0
 newcut_82: +1.0 t_x#6#7 -1.0 t_y#6#6 <= 0.0
 newcut_83: -1.0 t_x#1#10 -1.0 t_x#2#9 -1.0 t_y#3#10 +1.0 t_y#2#10 <= -1.0
 newcut_84: +1.0 t_x#3#3 -1.0 t_y#2#3 <= 0.0
 newcut_85: +1.0 t_x#7#5 -1.0 t_y#7#6 <= 0.0
 newcut_86: +1.0 t_x#10#3 -1.0 t_y#9#3 <= 0.0
 newcut_87: -1.0 t_x#5#7 -1.0 t_x#6#6 -1.0 t_x#6#8 -1.0 t_x#7#7 +1.0 t_y#6#7 <= 0.0
 newcut_88: -1.0 t_x#1#5 -1.0 t_x#1#6 -1.0 t_x#2#4 -1.0 t_x#2#5 -1.0 t_x#2#6 -1.0 t_x#2#7 +1.0 t_x#3#7 +1.0 t_x#4#6 -1.0 t_y#4#7 -1.0 t_y#3#6 +1.0 t_y#2#6 +1.0 t_y#2#5 <= -1.0
 newcut_89: +1.0 t_x#1#4 -1.0 t_y#1#4 <= 0.0
 newcut_90: +1.0 t_x#8#10 -1.0 t_y#7#10 <= 0.0
 newcut_91: +1.0 t_x#6#4 -1.0 t_y#5#4 <= 0.0
 newcut_92: +1.0 t_x#9#3 +1.0 t_x#9#4 +1.0 t_x#9#5 +1.0 t_x#10#3 +1.0 t_x#10#4 +1.0 t_x#10#5 -1.0 t_y#10#4 -1.0 t_y#9#5 -1.0 t_y#9#4 -1.0 t_y#9#3 <= -1.0
 newcut_93: -1.0 t_x#2#2 -1.0 t_x#3#1 -1.0 t_x#4#2 -1.0 t_x#4#4 -1.0 t_x#4#5 -1.0 t_x#5#4 +1.0 t_y#4#4 -1.0 t_y#3#3 +1.0 t_y#3#2 <= 0.0
 newcut_94: +1.0 t_x#5#1 +1.0 t_x#5#2 +1.0 t_x#6#1 +1.0 t_x#6#2 +1.0 t_x#6#3 +1.0 t_x#7#1 +1.0 t_x#7#2 +1.0 t_x#7#3 -1.0 t_y#6#1 -1.0 t_y#5#1 -1.0 t_y#7#3 -1.0 t_y#7#2 -1.0 t_y#5#3 <= -1.0
 newcut_95: +1.0 t_x#3#3 -1.0 t_y#4#3 <= 0.0
Bounds
 0 <= t_x#10#10 <= 1
 0 <= t_x#1#1 <= 1
 0 <= t_x#1#2 <= 1
 0 <= t_x#1#3 <= 1
 0 <= t_x#1#4 <= 1
 0 <= t_x#1#5 <= 1
 0 <= t_x#1#6 <= 1
 0 <= t_x#1#7 <= 1
 0 <= t_x#1#8 <= 1
 0 <= t_x#1#9 <= 1
 0 <= t_x#1#10 <= 1
 0 <= t_x#2#1 <= 1
 0 <= t_x#2#2 <= 1
 0 <= t_x#2#3 <= 1
 0 <= t_x#2#4 <= 1
 0 <= t_x#2#5 <= 1
 0 <= t_x#2#6 <= 1
 0 <= t_x#2#7 <= 1
 0 <= t_x#2#8 <= 1
 0 <= t_x#2#9 <= 1
 0 <= t_x#2#10 <= 1
 0 <= t_x#3#1 <= 1
 0 <= t_x#3#2 <= 1
 0 <= t_x#3#3 <= 1
 0 <= t_x#3#4 <= 1
 0 <= t_x#3#5 <= 1
 0 <= t_x#3#6 <= 1
 0 <= t_x#3#7 <= 1
 0 <= t_x#3#8 <= 1
 0 <= t_x#3#9 <= 1
 0 <= t_x#3#10 <= 1
 0 <= t_x#4#1 <= 1
 0 <= t_x#4#2 <= 1
 0 <= t_x#4#3 <= 1
 0 <= t_x#4#4 <= 1
 0 <= t_x#4#5 <= 1
 0 <= t_x#4#6 <= 1
 0 <= t_x#4#7 <= 1
 0 <= t_x#4#8 <= 1
 0 <= t_x#4#9 <= 1
 0 <= t_x#4#10 <= 1
 0 <= t_x#5#1 <= 1
 0 <= t_x#5#2 <= 1
 0 <= t_x#5#3 <= 1
 0 <= t_x#5#4 <= 1
 0 <= t_x#5#5 <= 1
 0 <= t_x#5#6 <= 1
 0 <= t_x#5#7 <= 1
 0 <= t_x#5#8 <= 1
 0 <= t_x#5#9 <= 1
 0 <= t_x#5#10 <= 1
 0 <= t_x#6#1 <= 1
 0 <= t_x#6#2 <= 1
 0 <= t_x#6#3 <= 1
 0 <= t_x#6#4 <= 1
 0 <= t_x#6#5 <= 1
 0 <= t_x#6#6 <= 1
 0 <= t_x#6#7 <= 1
 0 <= t_x#6#8 <= 1
 0 <= t_x#6#9 <= 1
 0 <= t_x#6#10 <= 1
 0 <= t_x#7#1 <= 1
 0 <= t_x#7#2 <= 1
 0 <= t_x#7#3 <= 1
 0 <= t_x#7#4 <= 1
 0 <= t_x#7#5 <= 1
 0 <= t_x#7#6 <= 1
 0 <= t_x#7#7 <= 1
 0 <= t_x#7#8 <= 1
 0 <= t_x#7#9 <= 1
 0 <= t_x#7#10 <= 1
 0 <= t_x#8#1 <= 1
 0 <= t_x#8#2 <= 1
 0 <= t_x#8#3 <= 1
 0 <= t_x#8#4 <= 1
 0 <= t_x#8#5 <= 1
 0 <= t_x#8#6 <= 1
 0 <= t_x#8#7 <= 1
 0 <= t_x#8#8 <= 1
 0 <= t_x#8#9 <= 1
 0 <= t_x#8#10 <= 1
 0 <= t_x#9#1 <= 1
 0 <= t_x#9#2 <= 1
 0 <= t_x#9#3 <= 1
 0 <= t_x#9#4 <= 1
 0 <= t_x#9#5 <= 1
 0 <= t_x#9#6 <= 1
 0 <= t_x#9#7 <= 1
 0 <= t_x#9#8 <= 1
 0 <= t_x#9#9 <= 1
 0 <= t_x#9#10 <= 1
 0 <= t_x#10#1 <= 1
 0 <= t_x#10#2 <= 1
 0 <= t_x#10#3 <= 1
 0 <= t_x#10#4 <= 1
 0 <= t_x#10#5 <= 1
 0 <= t_x#10#6 <= 1
 0 <= t_x#10#7 <= 1
 0 <= t_x#10#8 <= 1
 0 <= t_x#10#9 <= 1
 0 <= t_y#1#10 <= 1
 1 <= t_y#10#1 <= 2
 1 <= t_y#1#1 <= 2
 1 <= t_y#9#10 <= 2
 1 <= t_y#8#10 <= 2
 0 <= t_y#7#10 <= 2
 0 <= t_y#6#10 <= 2
 0 <= t_y#5#10 <= 2
 0 <= t_y#4#10 <= 2
 1 <= t_y#3#10 <= 2
 0 <= t_y#2#10 <= 2
 0 <= t_y#9#1 <= 2
 1 <= t_y#8#1 <= 2
 0 <= t_y#7#1 <= 2
 0 <= t_y#6#1 <= 2
 1 <= t_y#5#1 <= 2
 0 <= t_y#4#1 <= 2
 0 <= t_y#3#1 <= 2
 0 <= t_y#2#1 <= 2
 1 <= t_y#10#9 <= 2
 0 <= t_y#10#8 <= 2
 1 <= t_y#10#7 <= 2
 0 <= t_y#10#6 <= 2
 1 <= t_y#10#5 <= 2
 1 <= t_y#10#4 <= 2
 1 <= t_y#10#3 <= 2
 0 <= t_y#10#2 <= 2
 0 <= t_y#1#9 <= 2
 1 <= t_y#1#8 <= 2
 0 <= t_y#1#7 <= 2
 0 <= t_y#1#6 <= 2
 0 <= t_y#1#5 <= 2
 0 <= t_y#1#4 <= 2
 0 <= t_y#1#3 <= 2
 0 <= t_y#1#2 <= 2
 0 <= t_y#9#9 <= 2
 1 <= t_y#9#8 <= 3
 1 <= t_y#9#7 <= 3
 0 <= t_y#9#6 <= 2
 0 <= t_y#9#5 <= 2
 0 <= t_y#9#4 <= 2
 0 <= t_y#9#3 <= 2
 1 <= t_y#9#2 <= 3
 0 <= t_y#8#9 <= 2
 1 <= t_y#8#8 <= 3
 0 <= t_y#8#7 <= 2
 0 <= t_y#8#6 <= 2
 1 <= t_y#8#5 <= 3
 0 <= t_y#8#4 <= 2
 0 <= t_y#8#3 <= 2
 0 <= t_y#8#2 <= 2
 1 <= t_y#7#9 <= 3
 0 <= t_y#7#8 <= 2
 1 <= t_y#7#7 <= 3
 0 <= t_y#7#6 <= 2
 0 <= t_y#7#5 <= 2
 1 <= t_y#7#4 <= 3
 0 <= t_y#7#3 <= 2
 0 <= t_y#7#2 <= 2
 0 <= t_y#6#9 <= 2
 1 <= t_y#6#8 <= 3
 0 <= t_y#6#7 <= 2
 0 <= t_y#6#6 <= 2
 0 <= t_y#6#5 <= 2
 0 <= t_y#6#4 <= 2
 1 <= t_y#6#3 <= 3
 0 <= t_y#6#2 <= 2
 0 <= t_y#5#9 <= 2
 0 <= t_y#5#8 <= 2
 0 <= t_y#5#7 <= 2
 1 <= t_y#5#6 <= 3
 0 <= t_y#5#5 <= 2
 0 <= t_y#5#4 <= 2
 0 <= t_y#5#3 <= 2
 0 <= t_y#5#2 <= 2
 0 <= t_y#4#9 <= 2
 1 <= t_y#4#8 <= 3
 0 <= t_y#4#7 <= 2
 0 <= t_y#4#6 <= 2
 0 <= t_y#4#5 <= 2
 0 <= t_y#4#4 <= 2
 0 <= t_y#4#3 <= 2
 0 <= t_y#4#2 <= 2
 0 <= t_y#3#9 <= 2
 0 <= t_y#3#8 <= 2
 0 <= t_y#3#7 <= 2
 1 <= t_y#3#6 <= 3
 1 <= t_y#3#5 <= 3
 0 <= t_y#3#4 <= 2
 0 <= t_y#3#3 <= 2
 1 <= t_y#3#2 <= 3
 0 <= t_y#2#9 <= 2
 0 <= t_y#2#8 <= 2
 1 <= t_y#2#7 <= 3
 0 <= t_y#2#6 <= 2
 0 <= t_y#2#5 <= 2
 0 <= t_y#2#4 <= 2
 0 <= t_y#2#3 <= 2
 0 <= t_y#2#2 <= 2
 0 <= t_y#10#10 <= 1
Binaries
 t_x#10#10 t_x#1#1 t_x#1#2 t_x#1#3 t_x#1#4 t_x#1#5 t_x#1#6 t_x#1#7 t_x#1#8 t_x#1#9 t_x#1#10 t_x#2#1 t_x#2#2
 t_x#2#3 t_x#2#4 t_x#2#5 t_x#2#6 t_x#2#7 t_x#2#8 t_x#2#9 t_x#2#10 t_x#3#1 t_x#3#2 t_x#3#3 t_x#3#4 t_x#3#5
 t_x#3#6 t_x#3#7 t_x#3#8 t_x#3#9 t_x#3#10 t_x#4#1 t_x#4#2 t_x#4#3 t_x#4#4 t_x#4#5 t_x#4#6 t_x#4#7 t_x#4#8
 t_x#4#9 t_x#4#10 t_x#5#1 t_x#5#2 t_x#5#3 t_x#5#4 t_x#5#5 t_x#5#6 t_x#5#7 t_x#5#8 t_x#5#9 t_x#5#10 t_x#6#1
 t_x#6#2 t_x#6#3 t_x#6#4 t_x#6#5 t_x#6#6 t_x#6#7 t_x#6#8 t_x#6#9 t_x#6#10 t_x#7#1 t_x#7#2 t_x#7#3 t_x#7#4
 t_x#7#5 t_x#7#6 t_x#7#7 t_x#7#8 t_x#7#9 t_x#7#10 t_x#8#1 t_x#8#2 t_x#8#3 t_x#8#4 t_x#8#5 t_x#8#6 t_x#8#7
 t_x#8#8 t_x#8#9 t_x#8#10 t_x#9#1 t_x#9#2 t_x#9#3 t_x#9#4 t_x#9#5 t_x#9#6 t_x#9#7 t_x#9#8 t_x#9#9 t_x#9#10
 t_x#10#1 t_x#10#2 t_x#10#3 t_x#10#4 t_x#10#5 t_x#10#6 t_x#10#7 t_x#10#8 t_x#10#9
Generals
 t_y#1#10 t_y#10#1 t_y#1#1 t_y#9#10 t_y#8#10 t_y#7#10 t_y#6#10 t_y#5#10 t_y#4#10 t_y#3#10 t_y#2#10 t_y#9#1
 t_y#8#1 t_y#7#1 t_y#6#1 t_y#5#1 t_y#4#1 t_y#3#1 t_y#2#1 t_y#10#9 t_y#10#8 t_y#10#7 t_y#10#6 t_y#10#5
 t_y#10#4 t_y#10#3 t_y#10#2 t_y#1#9 t_y#1#8 t_y#1#7 t_y#1#6 t_y#1#5 t_y#1#4 t_y#1#3 t_y#1#2 t_y#9#9 t_y#9#8
 t_y#9#7 t_y#9#6 t_y#9#5 t_y#9#4 t_y#9#3 t_y#9#2 t_y#8#9 t_y#8#8 t_y#8#7 t_y#8#6 t_y#8#5 t_y#8#4 t_y#8#3
 t_y#8#2 t_y#7#9 t_y#7#8 t_y#7#7 t_y#7#6 t_y#7#5 t_y#7#4 t_y#7#3 t_y#7#2 t_y#6#9 t_y#6#8 t_y#6#7 t_y#6#6
 t_y#6#5 t_y#6#4 t_y#6#3 t_y#6#2 t_y#5#9 t_y#5#8 t_y#5#7 t_y#5#6 t_y#5#5 t_y#5#4 t_y#5#3 t_y#5#2 t_y#4#9
 t_y#4#8 t_y#4#7 t_y#4#6 t_y#4#5 t_y#4#4 t_y#4#3 t_y#4#2 t_y#3#9 t_y#3#8 t_y#3#7 t_y#3#6 t_y#3#5 t_y#3#4
 t_y#3#3 t_y#3#2 t_y#2#9 t_y#2#8 t_y#2#7 t_y#2#6 t_y#2#5 t_y#2#4 t_y#2#3 t_y#2#2 t_y#10#10
End
